NAME : cities
COMMENT : 7 locations in map
COMMENT : Derived from DSAassignment.pdf
TYPE : TSP
DIMENSION : 7
EDGE_WEIGHT_TYPE : EUC_2D
NODE_COORD_SECTION
1 59766.6667 21366.6667
2 59816.6667 22966.6667
3 59816.6667 23066.6667
4 59833.3333 21616.6667
5 59833.3333 22950.0000
6 59833.3333 23083.3333
7 59833.3333 23200.0000
EOF
